
Gurobi 9.1.2 (linux64) logging started Sat Mar 19 12:41:08 2022

Changed value of parameter LogFile to /home/DAVIDSON/doflocco/Graph_Pebbling/results/symmetry/bound-01/v-(1, 4)ls_sym_v-(1, 4).log
   Prev:   Default: 
Changed value of parameter MIPFocus to 1
   Prev: 0  Min: 0  Max: 3  Default: 0
Changed value of parameter Threads to 4
   Prev: 0  Min: 0  Max: 1024  Default: 0
Changed value of parameter TimeLimit to 1800.0
   Prev: inf  Min: 0.0  Max: inf  Default: inf
Warning: variable name "X[(1, 0),(0, 0)]" has a space
Warning: constraint name "flow-constr-t0-v(1, 4)" has a space
Warning: to let Gurobi read it back, use rlp format
Gurobi Optimizer version 9.1.2 build v9.1.2rc0 (linux64)
Thread count: 16 physical cores, 32 logical processors, using up to 4 threads
Optimize a model with 3657 rows, 3264 columns and 12462 nonzeros
Model fingerprint: 0xb689a491
Variable types: 384 continuous, 2880 integer (2880 binary)
Coefficient statistics:
  Matrix range     [1e+00, 7e+04]
  Objective range  [2e-01, 2e-01]
  Bounds range     [1e+00, 3e+04]
  RHS range        [1e+00, 7e+04]
Presolve removed 225 rows and 222 columns
Presolve time: 0.05s
Presolved: 3432 rows, 3042 columns, 22794 nonzeros
Variable types: 384 continuous, 2658 integer (2658 binary)

Root relaxation: objective 6.400000e+01, 168 iterations, 0.01 seconds

    Nodes    |    Current Node    |     Objective Bounds      |     Work
 Expl Unexpl |  Obj  Depth IntInf | Incumbent    BestBd   Gap | It/Node Time

     0     0   64.00000    0   30          -   64.00000      -     -    0s
H    0     0                     737.3333332   64.00000  91.3%     -    0s
H    0     0                     737.1666666   64.00000  91.3%     -    0s
H    0     0                     736.9999999   64.00000  91.3%     -    0s
     0     0   64.00000    0   77  737.00000   64.00000  91.3%     -    0s
H    0     0                     199.0000000   64.00000  67.8%     -    0s
     0     0   64.00000    0   85  199.00000   64.00000  67.8%     -    0s
H    0     0                     175.6666667   64.00000  63.6%     -    0s
H    0     0                     167.0000000   64.00000  61.7%     -    0s
     0     0   64.00000    0   40  167.00000   64.00000  61.7%     -    0s
H    0     0                     152.3333333   64.00000  58.0%     -    0s
H    0     0                     120.3333333   64.00000  46.8%     -    0s
H    0     0                     110.3416667   64.00000  42.0%     -    0s
     0     0   64.00000    0   28  110.34167   64.00000  42.0%     -    0s
H    0     0                      98.0000000   64.00000  34.7%     -    1s
     0     0   64.00000    0   58   98.00000   64.00000  34.7%     -    1s
     0     0   64.00000    0   33   98.00000   64.00000  34.7%     -    1s
     0     0   64.00000    0   72   98.00000   64.00000  34.7%     -    1s
     0     0   64.00000    0   28   98.00000   64.00000  34.7%     -    1s
H    0     0                      95.7083333   64.00000  33.1%     -    1s
H    0     0                      90.0000000   64.00000  28.9%     -    1s
     0     2   64.00000    0   28   90.00000   64.00000  28.9%     -    1s
H    1     4                      89.8333333   64.00000  28.8%   487    1s
H   11    16                      89.5000000   64.00000  28.5%  70.9    1s
H   31    36                      87.3333333   64.00000  26.7%  27.5    2s
H   61    91                      85.1666667   64.00000  24.9%  41.7    3s
H  106   202                      83.8333329   64.00000  23.7%  24.8    3s
H  207   250                      80.9166667   64.00000  20.9%  14.0    3s

Cutting planes:
  Gomory: 1
  Cover: 17
  Implied bound: 22
  Clique: 1
  MIR: 4
  Flow cover: 30
  RLT: 22
  Relax-and-lift: 12

Explored 249 nodes (14126 simplex iterations) in 3.96 seconds
Thread count was 4 (of 32 available processors)

Solution count 10: 80.9167 83.8333 85.1667 ... 110.342

Solve interrupted
Best objective 8.091666666647e+01, best bound 6.400000000000e+01, gap 20.9063%
